instances/knapsack/discrete/knapsack_20_17.kp
29384
20
108

67 6.7 57
95 9.5 78
33 3.3 67
86 8.6 3
83 8.3 9
65 6.5 8
28 2.8 65
95 9.5 39
40 4.0 58
17 1.7 30
79 7.9 78
90 9.0 94
35 3.5 94
31 3.1 85
60 6.0 94
44 4.4 31
96 9.6 1
11 1.1 37
52 5.2 78
37 3.7 25

11089
95

[1.73 3.05 0.13 2.37 1.89 0.99 2.21 1.33 0.21 0.6 1.06 3.35 1.08 1.02 3.74 3.8 3.88 1.08 2.77 1.36]

[9 90 60 45 70 95 19 85 79 80 73 33 26 70 38 10 39 2 63 16]
